Maximize
Benefice: 700 nbvc + 300 nbvs 

Subject To
MaxheureTravail : 6 nbvc + 5 nbvs <= 6000
MaxSurfaceParking : 2.5 nbvc + 1 nbvs <= 1500
MaxVeloCargot    : nbvc <= 700

\* To declare integer variables :   
Integer 
nbvc 
nbvs